4
d12=2.86042021
Al       0.0019632042       0.0007220915      -0.0002784554
Al       2.0219502023       2.0259766821       0.0000740534
Al       2.0242798419      -0.0000091428       2.0248253023
Al       0.0018067515       2.0233103692       2.0253790998
4
d12=2.85703893
Al       0.0039411215       0.0014478564      -0.0005581579
Al       2.0188857429       2.0269525153       0.0001476677
Al       2.0235482904      -0.0000165157       2.0246510590
Al       0.0036248452       2.0216161440       2.0257594312
4
d12=2.85361370
Al       0.0059493569       0.0021812529      -0.0008404610
Al       2.0157916376       2.0279265525       0.0002204384
Al       2.0227936209      -0.0000204286       2.0244777617
Al       0.0054653846       2.0199126232       2.0261422610
4
d12=2.85011971
Al       0.0080034423       0.0029261865      -0.0011266883
Al       2.0126528385       2.0288978459       0.0002919455
Al       2.0220040246      -0.0000191261       2.0243058944
Al       0.0073396947       2.0181950938       2.0265288483
4
d12=2.84653214
Al       0.0101190151       0.0036865237      -0.0014181546
Al       2.0094541685       2.0298654417       0.0003617386
Al       2.0211675149      -0.0000107798       2.0241359511
Al       0.0092593016       2.0164588144       2.0269204650
4
d12=2.84282591
Al       0.0123119668       0.0044661292      -0.0017161776
Al       2.0061802349       2.0308283577       0.0004293407
Al       2.0202718188       0.0000065250       2.0239684395
Al       0.0112359796       2.0146989882       2.0273183974
4
d12=2.83897551
Al       0.0145985956       0.0052688986      -0.0020220838
Al       2.0028153362       2.0317855664       0.0004942488
Al       2.0193042604       0.0000347950       2.0238038834
Al       0.0132818078       2.0129107400       2.0277239516
4
d12=2.83495497
Al       0.0169956397       0.0060987409      -0.0023372056
Al       1.9993434274       2.0327359993       0.0005559243
Al       2.0182517060       0.0000761526       2.0236428248
Al       0.0154092269       2.0110891071       2.0281384566
