4
# CELL(abcABC):    7.65339     7.65339     7.65339    90.00000    90.00000    90.00000  Step:           0  Bead:       0 positions{atomic_unit}  cell{atomic_unit}
      Al  0.00000e+00  0.00000e+00  0.00000e+00
      Al  3.82670e+00  3.82670e+00  0.00000e+00
      Al  3.82670e+00  0.00000e+00  3.82670e+00
      Al  0.00000e+00  3.82670e+00  3.82670e+00
4
# CELL(abcABC):    7.65339     7.65339     7.65339    90.00000    90.00000    90.00000  Step:           1  Bead:       0 positions{atomic_unit}  cell{atomic_unit}
      Al -1.28664e-02 -5.90343e-03  2.61877e-03
      Al  3.83316e+00  3.82491e+00 -6.14732e-03
      Al  3.83260e+00  5.26879e-03  3.82631e+00
      Al  4.94445e-04  3.82912e+00  3.83061e+00
4
# CELL(abcABC):    7.65339     7.65339     7.65339    90.00000    90.00000    90.00000  Step:           2  Bead:       0 positions{atomic_unit}  cell{atomic_unit}
      Al -2.58003e-02 -1.18249e-02  5.23583e-03
      Al  3.83967e+00  3.82313e+00 -1.23100e-02
      Al  3.83856e+00  1.05418e-02  3.82593e+00
      Al  9.59480e-04  3.83155e+00  3.83453e+00
4
# CELL(abcABC):    7.65339     7.65339     7.65339    90.00000    90.00000    90.00000  Step:           3  Bead:       0 positions{atomic_unit}  cell{atomic_unit}
      Al -3.88672e-02 -1.77810e-02  7.84863e-03
      Al  3.84628e+00  3.82135e+00 -1.85033e-02
      Al  3.84461e+00  1.58231e-02  3.82557e+00
      Al  1.36609e-03  3.83400e+00  3.83848e+00
4
# CELL(abcABC):    7.65339     7.65339     7.65339    90.00000    90.00000    90.00000  Step:           4  Bead:       0 positions{atomic_unit}  cell{atomic_unit}
      Al -5.21292e-02 -2.37860e-02  1.04534e-02
      Al  3.85303e+00  3.81958e+00 -2.47424e-02
      Al  3.85080e+00  2.11161e-02  3.82522e+00
      Al  1.68517e-03  3.83648e+00  3.84246e+00
4
# CELL(abcABC):    7.65339     7.65339     7.65339    90.00000    90.00000    90.00000  Step:           5  Bead:       0 positions{atomic_unit}  cell{atomic_unit}
      Al -6.56442e-02 -2.98517e-02  1.30447e-02
      Al  3.85997e+00  3.81783e+00 -3.10421e-02
      Al  3.85718e+00  2.64239e-02  3.82490e+00
      Al  1.88689e-03  3.83899e+00  3.84649e+00
