4
d12=2.86618706
Al      -0.0008501494      -0.0008501529       0.0000000150
Al       2.0258501565       2.0258501504       0.0000000163
Al       2.0249999979       0.0000000106       2.0249999844
Al      -0.0000000050       2.0249999919       2.0249999843
4
d12=2.87337747
Al      -0.0033924969      -0.0033925052       0.0000000271
Al       2.0283922009       2.0283921905       0.0000000306
Al       2.0250025455      -0.0000022210       2.0249999713
Al      -0.0000022496       2.0250025356       2.0249999710
4
d12=2.88528762
Al      -0.0076047880      -0.0076048262       0.0000000657
Al       2.0326016261       2.0326016428       0.0000000797
Al       2.0250159239      -0.0000127583       2.0249999276
Al      -0.0000127621       2.0250159417       2.0249999270
4
d12=2.90180552
Al      -0.0134489992      -0.0134491018       0.0000001004
Al       2.0384372715       2.0384373492       0.0000001217
Al       2.0250534514      -0.0000417779       2.0249998893
Al      -0.0000417237       2.0250535305       2.0249998886
4
d12=2.92277183
Al      -0.0208707281      -0.0208708937       0.0000001228
Al       2.0458408990       2.0458410364       0.0000001488
Al       2.0251330384      -0.0001033200       2.0249998646
Al      -0.0001032093       2.0251331773       2.0249998638
4
d12=2.94797595
Al      -0.0297973940      -0.0297976137       0.0000001393
Al       2.0547361881       2.0547363758       0.0000001704
Al       2.0252761726      -0.0002151220       2.0249998457
Al      -0.0002149668       2.0252763599       2.0249998446
4
d12=2.97715295
Al      -0.0401365951      -0.0401369104       0.0000001358
Al       2.0650281506       2.0650284291       0.0000001658
Al       2.0255070938      -0.0003988944       2.0249998498
Al      -0.0003986494       2.0255073757       2.0249998486
4
d12=3.00998100
Al      -0.0517750967      -0.0517755329       0.0000001321
Al       2.0766024635       2.0766028571       0.0000001625
Al       2.0258526756      -0.0006804037       2.0249998535
Al      -0.0006800424       2.0258530796       2.0249998520
4
d12=3.04607937
Al      -0.0645784164      -0.0645789767       0.0000001472
Al       2.0893244249       2.0893249355       0.0000001900
Al       2.0263429741      -0.0010894623       2.0249998322
Al      -0.0010889827       2.0263435035       2.0249998305
4
d12=3.08501025
Al      -0.0783919773      -0.0783926518       0.0000001489
Al       2.1030390424       2.1030396598       0.0000002004
Al       2.0270119209      -0.0016595733       2.0249998263
Al      -0.0016589861       2.0270125654       2.0249998244
4
d12=3.12628598
Al      -0.0930441440      -0.0930449260       0.0000001515
Al       2.1175731192       2.1175738381       0.0000002117
Al       2.0278975029      -0.0024271582       2.0249998195
Al      -0.0024264781       2.0278982461       2.0249998173
4
d12=3.16937908
Al      -0.1083502978      -0.1083512068       0.0000001564
Al       2.1327382658       2.1327391104       0.0000002263
Al       2.0290416435      -0.0034304316       2.0249998098
Al      -0.0034296115       2.0290425280       2.0249998074
4
d12=3.21372986
Al      -0.1241156119      -0.1241166551       0.0000001684
Al       2.1483335588       2.1483345292       0.0000002508
Al       2.0304896392      -0.0047085435       2.0249997917
Al      -0.0047075860       2.0304906694       2.0249997891
4
d12=3.25876528
Al      -0.1401394854      -0.1401406597       0.0000001903
Al       2.1641544045       2.1641555103       0.0000002887
Al       2.0322874746      -0.0063034953       2.0249997619
Al      -0.0063023937       2.0322886446       2.0249997591
4
d12=3.30392745
Al      -0.1562244521      -0.1562257736       0.0000002244
Al       2.1800037654       2.1800050225       0.0000003412
Al       2.0344806457      -0.0082612429       2.0249997187
Al      -0.0082599590       2.0344819940       2.0249997157
