4
d12=2.86378245
Al       0.0000000090       0.0000000056       0.0000000150
Al       2.0249999981       2.0249999920       0.0000000163
Al       2.0249999979       0.0000000106       2.0249999844
Al      -0.0000000050       2.0249999919       2.0249999843
4
d12=2.86378331
Al      -0.0000005675      -0.0000003476      -0.0000009423
Al       2.0250001879       2.0250001005       0.0000003646
Al       2.0250001880       0.0000001471       2.0250002889
Al       0.0000001916       2.0250001000       2.0250002889
4
d12=2.86378328
Al      -0.0000005554      -0.0000003328      -0.0000009090
Al       2.0250001851       2.0250000817       0.0000003951
Al       2.0250001855       0.0000001707       2.0250002566
Al       0.0000001848       2.0250000804       2.0250002573
4
d12=2.86378233
Al       0.0000000754       0.0000000379       0.0000001099
Al       2.0249999782       2.0249999417       0.0000001040
Al       2.0249999786       0.0000000809       2.0249998923
Al      -0.0000000322       2.0249999395       2.0249998938
4
d12=2.86378231
Al       0.0000000521       0.0000000755       0.0000001586
Al       2.0249999878       2.0249999161       0.0000001099
Al       2.0249999883       0.0000000954       2.0249998647
Al      -0.0000000282       2.0249999130       2.0249998668
4
d12=2.86378309
Al      -0.0000003246      -0.0000003869      -0.0000008461
Al       2.0250001097       2.0250000630       0.0000004567
Al       2.0250001104       0.0000002647       2.0250001934
Al       0.0000001046       2.0250000592       2.0250001960
4
d12=2.86378304
Al      -0.0000003102      -0.0000003653      -0.0000008063
Al       2.0250001061       2.0250000388       0.0000004747
Al       2.0250001069       0.0000002925       2.0250001642
Al       0.0000000972       2.0250000341       2.0250001674
4
d12=2.86378219
Al       0.0000001166       0.0000001022       0.0000002891
Al       2.0249999604       2.0249998759       0.0000001548
Al       2.0249999613       0.0000001517       2.0249997762
Al      -0.0000000382       2.0249998702       2.0249997799
4
d12=2.86378211
Al       0.0000001143       0.0000001858       0.0000003071
Al       2.0249999571       2.0249998476       0.0000001719
Al       2.0249999581       0.0000001257       2.0249997585
Al      -0.0000000295       2.0249998408       2.0249997625
4
d12=2.86378295
Al      -0.0000002586      -0.0000003238      -0.0000006710
Al       2.0250000772       2.0250000215       0.0000005174
Al       2.0250000784       0.0000002887       2.0250000746
Al       0.0000001030       2.0250000136       2.0250000790
4
d12=2.86378298
Al      -0.0000002610      -0.0000003425      -0.0000006106
Al       2.0250000926       2.0250000324       0.0000005447
Al       2.0250000941       0.0000002864       2.0250000304
Al       0.0000000743       2.0250000237       2.0250000355
4
d12=2.86378216
Al       0.0000001465       0.0000001648       0.0000004690
Al       2.0249999827       2.0249998925       0.0000002742
Al       2.0249999844       0.0000000598       2.0249996256
Al      -0.0000001136       2.0249998829       2.0249996312
4
d12=2.86378200
Al       0.0000002217       0.0000002878       0.0000004462
Al       2.0249999766       2.0249998826       0.0000003489
Al       2.0249999787      -0.0000000426       2.0249995995
Al      -0.0000001771       2.0249998722       2.0249996055
4
d12=2.86378287
Al      -0.0000001704      -0.0000001944      -0.0000005225
Al       2.0250001309       2.0250000815       0.0000007432
Al       2.0250001335       0.0000000425       2.0249998864
Al      -0.0000000939       2.0250000704       2.0249998929
4
d12=2.86378304
Al      -0.0000002203      -0.0000002726      -0.0000003919
Al       2.0250001794       2.0250001431       0.0000008038
Al       2.0250001825      -0.0000000017       2.0249997904
Al      -0.0000001416       2.0250001313       2.0249997976
